GLPSOL: GLPK LP/MIP Solver, v4.55
Parameter(s) specified in the command line:
 -m tmp.mod
Reading model section from tmp.mod...
Reading data section from tmp.mod...
1217 lines were read
Generating obj...
Generating kirhoff...
Generating init_charge...
Generating batt_size...
Model has been successfully generated
GLPK Simplex Optimizer, v4.55
1477 rows, 2028 columns, 4128 non-zeros
Preprocessing...
1019 rows, 1942 columns, 3992 non-zeros
Scaling...
 A: min|aij| =  1.000e+00  max|aij| =  1.000e+00  ratio =  1.000e+00
Problem data seem to be well scaled
Constructing initial basis...
Size of triangular part is 786
      0: obj =   0.000000000e+00  infeas =  1.346e+03 (233)
*   334: obj =   2.000000000e+01  infeas =  0.000e+00 (126)
*   399: obj =   7.000000000e+00  infeas =  0.000e+00 (122)
OPTIMAL LP SOLUTION FOUND
Time used:   0.0 secs
Memory used: 4.2 Mb (4384415 bytes)
#OUTPUT:
7
-21 -18 0 19 2 -20 2 -3 -14 -2 -3 0 0 -14 0 0 -20 0 0 -2 -2 0 0 0 -14 0 0 0 0 0 0 -20 0 0 0 0 14 0 0 2 0 0 0 0 0 -17 0 0 0 0 -22 0 0 0 0 20 -14 -4 0 0 0 0 0 0 0 0 0 0 0 
-22 -2 0 8 -2 1 -2 -6 0 -15 -6 0 0 0 -7 0 0 0 1 -15 -15 0 -1 1 0 0 0 0 0 0 0 0 0 0 0 0 0 0 0 0 0 0 0 0 0 0 0 0 0 0 -14 1 -1 0 0 0 0 0 0 0 0 0 0 0 0 0 0 0 0 
-22 -5 0 17 -2 -20 -2 -5 -6 -12 -1 0 0 -6 0 0 2 0 -1 -12 -15 -4 1 -1 -6 3 -3 -4 0 -16 0 -3 -16 0 0 -2 2 0 0 3 0 0 0 0 0 0 0 0 0 0 -22 -10 1 -3 0 3 -6 -1 0 0 0 0 0 0 0 0 0 0 0 
-13 2 0 0 2 -13 2 0 0 0 0 0 0 0 0 0 0 -10 0 0 0 0 0 0 0 0 0 0 0 0 0 0 0 0 0 0 0 0 0 -1 0 0 0 0 0 0 0 0 0 0 0 -13 0 0 0 0 0 0 0 0 0 0 0 0 0 0 0 0 0 
-8 -5 0 0 -3 -8 1 0 0 0 0 0 0 0 0 0 -8 0 0 0 -2 0 0 0 0 2 0 0 0 0 0 -2 0 0 0 0 0 0 0 1 0 0 0 0 0 0 0 0 0 0 0 0 0 0 0 2 0 0 0 0 0 0 0 0 0 0 0 0 0 
-22 -18 0 0 2 -7 2 -16 0 -13 0 0 0 0 0 -16 0 0 0 -13 -13 0 0 0 0 0 0 0 0 -5 0 -20 0 0 0 0 0 -15 -20 0 0 0 0 0 0 0 0 0 0 0 -16 -7 0 0 0 0 0 -2 0 0 0 0 0 0 0 0 0 0 0 
-22 -11 0 4 -2 -2 -2 1 -14 0 1 -14 0 0 0 0 0 0 1 0 0 0 -1 1 0 0 0 0 0 0 0 -9 0 0 0 0 0 0 -9 -3 0 0 -12 0 0 0 0 0 0 -15 -15 -2 -1 0 0 0 0 -10 0 0 0 0 0 0 0 0 0 0 0 
-3 0 0 -2 0 0 0 -2 0 0 -2 0 0 0 0 0 0 0 1 0 0 0 -1 1 0 0 0 0 0 0 0 0 0 0 0 0 0 0 0 1 0 0 0 0 0 0 0 0 0 0 0 0 -1 0 0 0 0 -1 0 0 0 0 0 0 0 0 0 0 0 
0 -1 0 0 -1 0 -1 1 0 0 1 0 0 0 0 0 0 0 1 0 0 0 -1 1 0 0 0 0 0 0 0 0 0 0 0 0 0 0 0 0 0 0 0 0 0 0 0 0 0 0 -1 0 -1 0 0 0 0 0 0 0 0 0 0 0 0 0 0 0 0 
-22 0 0 7 0 -10 0 -8 -19 0 -1 -9 0 -10 -1 0 -10 0 0 0 0 -7 0 0 0 0 0 0 -1 0 0 0 0 0 0 0 -10 0 0 0 0 0 0 0 0 0 0 0 0 0 -15 0 0 0 -7 0 10 0 0 0 0 0 0 0 0 0 0 0 0 
-14 0 0 0 0 -1 0 0 -13 0 0 0 0 -13 0 0 0 0 0 0 0 0 0 0 0 0 0 0 0 0 0 0 0 0 0 0 0 0 0 -1 0 0 0 0 0 0 0 0 0 0 0 -1 0 0 0 0 0 0 0 0 0 0 0 0 0 0 0 0 0 
-9 -13 0 0 0 -7 0 -16 0 -2 -6 0 0 0 -7 0 -7 0 1 -2 0 -10 -1 1 0 0 -3 -17 -7 0 -2 -13 0 0 -7 0 0 0 0 1 0 0 0 -7 0 0 0 -2 0 0 -16 0 -1 -3 7 0 0 0 0 0 0 0 0 0 0 0 0 0 0 
-1 0 0 0 0 0 0 0 0 -1 0 0 0 0 0 0 0 0 0 0 0 0 0 0 0 0 0 0 0 0 0 0 0 0 0 0 0 0 0 0 0 0 0 0 0 0 0 0 0 0 0 0 0 0 0 0 0 0 0 0 0 0 0 0 0 0 0 0 0 
-16 0 0 0 0 -16 0 0 0 0 0 0 0 0 0 0 -16 0 0 0 0 0 0 0 0 0 0 0 0 0 0 0 0 0 -16 0 0 0 0 0 0 0 0 -16 0 0 0 0 0 0 0 0 0 0 0 0 0 0 0 0 0 0 0 0 0 0 0 0 0 
#OUTPUT END
Model has been successfully processed
